p cnf 20 20
-6 -13 19 0
-1 -11 -17 0
8 -15 9 0
-2 8 -5 0
13 19 4 0
15 -19 18 0
14 -10 2 0
11 4 9 0
-19 8 -16 0
20 -2 13 0
19 -17 4 0
9 -1 -19 0
3 -15 -18 0
-18 -4 -13 0
-16 13 5 0
13 5 -20 0
-16 -20 -2 0
10 -9 1 0
-10 11 -13 0
-5 -19 17 0
